Minimize
  - 21 y_0 - 11 y_1 - 18 y_2 - 5 y_3 - 20 y_4 - 24 y_5 - 21 y_6 - 18 y_7
   - 22 y_8 - 20 y_9 - 18 y_10 - 26 y_11 - 4 y_12 - 28 y_13 - 21 y_14
   - 18 y_15 - 30 y_16 - 19 y_17 - 27 y_18 - 24 y_19 - 28 y_20 - 27 y_21
   - 27 y_22 - 7 y_23 - 23 y_24 - 32 y_25 - 15 y_26 - 9 y_27 - 14 y_28
   - 27 y_29 - 15 y_30 - 19 y_31 - 11 y_32 - 23 y_33 - 21 y_34 - 15 y_35
   - 21 y_36 - 13 y_37 - 17 y_38 - 24 y_39 - 20 y_40 - 25 y_41 - 16 y_43
   - 13 y_44 - 18 y_45 - 20 y_46 - 31 y_47 - 32 y_48 - 34 y_49
   + 992 Constant
Subject To
 c_0: y_12 = 1
 c_1_0: y_0 + y_2 + y_5 + y_11 + y_13 + y_17 + y_26 + y_28 + y_38 >= 1
 c_1_1: y_1 + y_3 + y_7 + y_9 + y_35 + y_44 >= 1
 c_1_2: y_0 + y_2 + y_11 + y_13 + y_17 + y_28 + y_31 + y_38 + y_45 >= 1
 c_1_3: y_1 + y_3 + y_12 + y_23 + y_27 + y_37 + y_42 + y_44 >= 1
 c_1_4: y_4 + y_7 + y_19 + y_35 + y_40 >= 1
 c_1_5: y_0 + y_5 + y_11 + y_26 + y_38 >= 1
 c_1_6: y_6 + y_9 + y_15 + y_44 >= 1
 c_1_7: y_1 + y_4 + y_7 + y_9 + y_19 + y_35 + y_40 >= 1
 c_1_8: y_8 + y_10 + y_14 + y_24 + y_41 + y_46 >= 1
 c_1_9: y_1 + y_6 + y_7 + y_9 + y_15 + y_44 >= 1
 c_1_10: y_8 + y_10 + y_24 + y_31 + y_41 + y_46 >= 1
 c_1_11: y_0 + y_2 + y_5 + y_11 + y_13 + y_17 + y_38 >= 1
 c_1_12: y_3 + y_12 + y_23 + y_28 + y_42 >= 1
 c_1_13: y_0 + y_2 + y_11 + y_13 + y_17 >= 1
 c_1_14: y_8 + y_14 + y_29 + y_30 + y_34 + y_41 >= 1
 c_1_15: y_6 + y_9 + y_15 + y_20 + y_21 + y_36 + y_37 + y_39 + y_43 + y_44
   >= 1
 c_1_16: y_16 + y_25 + y_29 + y_34 >= 1
 c_1_17: y_0 + y_2 + y_11 + y_13 + y_17 + y_28 + y_38 + y_45 >= 1
 c_1_18: y_18 + y_25 + y_33 >= 1
 c_1_19: y_4 + y_7 + y_19 + y_40 >= 1
 c_1_20: y_15 + y_20 + y_21 + y_36 + y_39 >= 1
 c_1_21: y_15 + y_20 + y_21 + y_36 + y_39 >= 1
 c_1_22: y_22 + y_24 + y_31 + y_45 + y_47 + y_48 + y_49 >= 1
 c_1_23: y_3 + y_12 + y_23 + y_26 + y_28 + y_42 >= 1
 c_1_24: y_8 + y_10 + y_22 + y_24 + y_31 + y_45 + y_46 >= 1
 c_1_25: y_16 + y_18 + y_25 + y_29 >= 1
 c_1_26: y_0 + y_5 + y_23 + y_26 + y_28 + y_35 + y_38 >= 1
 c_1_27: y_3 + y_27 + y_32 + y_37 + y_42 + y_43 >= 1
 c_1_28: y_0 + y_2 + y_12 + y_17 + y_23 + y_26 + y_28 + y_31 + y_38 + y_45
   >= 1
 c_1_29: y_14 + y_16 + y_25 + y_29 + y_34 >= 1
 c_1_30: y_14 + y_30 + y_32 + y_34 >= 1
 c_1_31: y_2 + y_10 + y_22 + y_24 + y_28 + y_31 + y_45 >= 1
 c_1_32: y_27 + y_30 + y_32 + y_34 >= 1
 c_1_33: y_18 + y_33 >= 1
 c_1_34: y_14 + y_16 + y_29 + y_30 + y_32 + y_34 >= 1
 c_1_35: y_1 + y_4 + y_7 + y_26 + y_35 + y_40 >= 1
 c_1_36: y_15 + y_20 + y_21 + y_36 + y_37 + y_39 + y_43 + y_44 >= 1
 c_1_37: y_3 + y_15 + y_27 + y_36 + y_37 + y_43 + y_44 >= 1
 c_1_38: y_0 + y_2 + y_5 + y_11 + y_17 + y_26 + y_28 + y_38 >= 1
 c_1_39: y_15 + y_20 + y_21 + y_36 + y_39 + y_43 >= 1
 c_1_40: y_4 + y_7 + y_19 + y_35 + y_40 >= 1
 c_1_41: y_8 + y_10 + y_14 + y_41 + y_46 >= 1
 c_1_42: y_3 + y_12 + y_23 + y_27 + y_42 >= 1
 c_1_43: y_15 + y_27 + y_36 + y_37 + y_39 + y_43 + y_44 >= 1
 c_1_44: y_1 + y_3 + y_6 + y_9 + y_15 + y_36 + y_37 + y_43 + y_44 >= 1
 c_1_45: y_2 + y_17 + y_22 + y_24 + y_28 + y_31 + y_45 >= 1
 c_1_46: y_8 + y_10 + y_24 + y_41 + y_46 >= 1
 c_1_47: y_22 + y_47 + y_48 + y_49 >= 1
 c_1_48: y_22 + y_47 + y_48 + y_49 >= 1
 c_1_49: y_22 + y_47 + y_48 + y_49 >= 1
Bounds
 Constant = 1
Binaries
 y_0 y_1 y_2 y_3 y_4 y_5 y_6 y_7 y_8 y_9 y_10 y_11 y_12 y_13 y_14 y_15 y_16
 y_17 y_18 y_19 y_20 y_21 y_22 y_23 y_24 y_25 y_26 y_27 y_28 y_29 y_30 y_31
 y_32 y_33 y_34 y_35 y_36 y_37 y_38 y_39 y_40 y_41 y_42 y_43 y_44 y_45 y_46
 y_47 y_48 y_49
End
